# Solution for model master_model
# Objective value = -1e+30
_f[32,Do_nothing] 1
_f[32,R1] 0
_f[32,R2] 0
_f[32,R3] 0
_f[70,Do_nothing] 1
_f[70,R1] 0
_f[70,R2] 0
_f[70,R3] 0
_f[5,Do_nothing] 1
_f[5,R1] 0
_f[5,R2] 0
_f[5,R3] 0
_f[85,Do_nothing] 1
_f[85,R1] 0
_f[85,R2] 0
_f[85,R3] 0
_f[71,Do_nothing] 1
_f[71,R1] 0
_f[71,R2] 0
_f[71,R3] 0
_f[92,Do_nothing] 1
_f[92,R1] 0
_f[92,R2] 0
_f[92,R3] 0
_f[38,Do_nothing] 1
_f[38,R1] 0
_f[38,R2] 0
_f[38,R3] 0
_f[21,Do_nothing] 1
_f[21,R1] 0
_f[21,R2] 0
_f[21,R3] 0
_f[41,Do_nothing] 1
_f[41,R1] 0
_f[41,R2] 0
_f[41,R3] 0
_f[56,Do_nothing] 1
_f[56,R1] 0
_f[56,R2] 0
_f[56,R3] 0
_f[80,Do_nothing] 1
_f[80,R1] 0
_f[80,R2] 0
_f[80,R3] 0
_f[62,Do_nothing] 1
_f[62,R1] 0
_f[62,R2] 0
_f[62,R3] 0
_f[20,Do_nothing] 1
_f[20,R1] 0
_f[20,R2] 0
_f[20,R3] 0
_f[10,Do_nothing] 1
_f[10,R1] 0
_f[10,R2] 0
_f[10,R3] 0
_f[55,Do_nothing] 1
_f[55,R1] 0
_f[55,R2] 0
_f[55,R3] 0
_f[36,Do_nothing] 1
_f[36,R1] 0
_f[36,R2] 0
_f[36,R3] 0
_f[44,Do_nothing] 1
_f[44,R1] 0
_f[44,R2] 0
_f[44,R3] 0
_f[48,Do_nothing] 1
_f[48,R1] 0
_f[48,R2] 0
_f[48,R3] 0
_f[8,Do_nothing] 1
_f[8,R1] 0
_f[8,R2] 0
_f[8,R3] 0
_f[15,Do_nothing] 1
_f[15,R1] 0
_f[15,R2] 0
_f[15,R3] 0
_f[61,Do_nothing] 1
_f[61,R1] 0
_f[61,R2] 0
_f[61,R3] 0
_f[78,Do_nothing] 1
_f[78,R1] 0
_f[78,R2] 0
_f[78,R3] 0
_f[34,Do_nothing] 1
_f[34,R1] 0
_f[34,R2] 0
_f[34,R3] 0
_f[100,Do_nothing] 1
_f[100,R1] 0
_f[100,R2] 0
_f[100,R3] 0
_f[90,Do_nothing] 1
_f[90,R1] 0
_f[90,R2] 0
_f[90,R3] 0
_f[64,Do_nothing] 1
_f[64,R1] 0
_f[64,R2] 0
_f[64,R3] 0
_f[79,Do_nothing] 1
_f[79,R1] 0
_f[79,R2] 0
_f[79,R3] 0
_f[1,Do_nothing] 1
_f[1,R1] 0
_f[1,R2] 0
_f[1,R3] 0
_f[22,Do_nothing] 1
_f[22,R1] 0
_f[22,R2] 0
_f[22,R3] 0
_f[31,Do_nothing] 1
_f[31,R1] 0
_f[31,R2] 0
_f[31,R3] 0
_f[54,Do_nothing] 1
_f[54,R1] 0
_f[54,R2] 0
_f[54,R3] 0
_f[82,Do_nothing] 1
_f[82,R1] 0
_f[82,R2] 0
_f[82,R3] 0
_f[11,Do_nothing] 1
_f[11,R1] 0
_f[11,R2] 0
_f[11,R3] 0
_f[75,Do_nothing] 1
_f[75,R1] 0
_f[75,R2] 0
_f[75,R3] 0
_f[50,Do_nothing] 1
_f[50,R1] 0
_f[50,R2] 0
_f[50,R3] 0
_f[19,Do_nothing] 1
_f[19,R1] 0
_f[19,R2] 0
_f[19,R3] 0
_f[99,Do_nothing] 1
_f[99,R1] 0
_f[99,R2] 0
_f[99,R3] 0
_f[72,Do_nothing] 1
_f[72,R1] 0
_f[72,R2] 0
_f[72,R3] 0
_f[47,Do_nothing] 1
_f[47,R1] 0
_f[47,R2] 0
_f[47,R3] 0
_f[49,Do_nothing] 1
_f[49,R1] 0
_f[49,R2] 0
_f[49,R3] 0
_f[77,Do_nothing] 1
_f[77,R1] 0
_f[77,R2] 0
_f[77,R3] 0
_f[95,Do_nothing] 1
_f[95,R1] 0
_f[95,R2] 0
_f[95,R3] 0
_f[98,Do_nothing] 1
_f[98,R1] 0
_f[98,R2] 0
_f[98,R3] 0
_f[53,Do_nothing] 1
_f[53,R1] 0
_f[53,R2] 0
_f[53,R3] 0
_f[65,Do_nothing] 1
_f[65,R1] 0
_f[65,R2] 0
_f[65,R3] 0
_f[63,Do_nothing] 1
_f[63,R1] 0
_f[63,R2] 0
_f[63,R3] 0
_f[14,Do_nothing] 1
_f[14,R1] 0
_f[14,R2] 0
_f[14,R3] 0
_f[23,Do_nothing] 1
_f[23,R1] 0
_f[23,R2] 0
_f[23,R3] 0
_f[93,Do_nothing] 1
_f[93,R1] 0
_f[93,R2] 0
_f[93,R3] 0
_f[28,Do_nothing] 1
_f[28,R1] 0
_f[28,R2] 0
_f[28,R3] 0
_f[2,Do_nothing] 1
_f[2,R1] 0
_f[2,R2] 0
_f[2,R3] 0
_f[81,Do_nothing] 1
_f[81,R1] 0
_f[81,R2] 0
_f[81,R3] 0
_f[45,Do_nothing] 1
_f[45,R1] 0
_f[45,R2] 0
_f[45,R3] 0
_f[88,Do_nothing] 1
_f[88,R1] 0
_f[88,R2] 0
_f[88,R3] 0
_f[89,Do_nothing] 1
_f[89,R1] 0
_f[89,R2] 0
_f[89,R3] 0
_f[25,Do_nothing] 1
_f[25,R1] 0
_f[25,R2] 0
_f[25,R3] 0
_f[91,Do_nothing] 1
_f[91,R1] 0
_f[91,R2] 0
_f[91,R3] 0
_f[43,Do_nothing] 1
_f[43,R1] 0
_f[43,R2] 0
_f[43,R3] 0
_f[76,Do_nothing] 1
_f[76,R1] 0
_f[76,R2] 0
_f[76,R3] 0
_f[42,Do_nothing] 1
_f[42,R1] 0
_f[42,R2] 0
_f[42,R3] 0
_f[7,Do_nothing] 1
_f[7,R1] 0
_f[7,R2] 0
_f[7,R3] 0
_f[17,Do_nothing] 1
_f[17,R1] 0
_f[17,R2] 0
_f[17,R3] 0
_f[37,Do_nothing] 1
_f[37,R1] 0
_f[37,R2] 0
_f[37,R3] 0
_f[26,Do_nothing] 1
_f[26,R1] 0
_f[26,R2] 0
_f[26,R3] 0
_f[9,Do_nothing] 1
_f[9,R1] 0
_f[9,R2] 0
_f[9,R3] 0
_f[60,Do_nothing] 1
_f[60,R1] 0
_f[60,R2] 0
_f[60,R3] 0
_f[16,Do_nothing] 1
_f[16,R1] 0
_f[16,R2] 0
_f[16,R3] 0
_f[83,Do_nothing] 1
_f[83,R1] 0
_f[83,R2] 0
_f[83,R3] 0
_f[13,Do_nothing] 1
_f[13,R1] 0
_f[13,R2] 0
_f[13,R3] 0
_f[67,Do_nothing] 1
_f[67,R1] 0
_f[67,R2] 0
_f[67,R3] 0
_f[59,Do_nothing] 1
_f[59,R1] 0
_f[59,R2] 0
_f[59,R3] 0
_f[58,Do_nothing] 1
_f[58,R1] 0
_f[58,R2] 0
_f[58,R3] 0
_f[4,Do_nothing] 1
_f[4,R1] 0
_f[4,R2] 0
_f[4,R3] 0
_f[68,Do_nothing] 1
_f[68,R1] 0
_f[68,R2] 0
_f[68,R3] 0
_f[87,Do_nothing] 1
_f[87,R1] 0
_f[87,R2] 0
_f[87,R3] 0
_f[40,Do_nothing] 1
_f[40,R1] 0
_f[40,R2] 0
_f[40,R3] 0
_f[30,Do_nothing] 1
_f[30,R1] 0
_f[30,R2] 0
_f[30,R3] 0
_f[27,Do_nothing] 1
_f[27,R1] 0
_f[27,R2] 0
_f[27,R3] 0
_f[73,Do_nothing] 1
_f[73,R1] 0
_f[73,R2] 0
_f[73,R3] 0
_f[84,Do_nothing] 1
_f[84,R1] 0
_f[84,R2] 0
_f[84,R3] 0
_f[35,Do_nothing] 1
_f[35,R1] 0
_f[35,R2] 0
_f[35,R3] 0
_f[46,Do_nothing] 1
_f[46,R1] 0
_f[46,R2] 0
_f[46,R3] 0
_f[39,Do_nothing] 1
_f[39,R1] 0
_f[39,R2] 0
_f[39,R3] 0
_f[51,Do_nothing] 1
_f[51,R1] 0
_f[51,R2] 0
_f[51,R3] 0
_f[52,Do_nothing] 1
_f[52,R1] 0
_f[52,R2] 0
_f[52,R3] 0
_f[6,Do_nothing] 1
_f[6,R1] 0
_f[6,R2] 0
_f[6,R3] 0
_f[96,Do_nothing] 1
_f[96,R1] 0
_f[96,R2] 0
_f[96,R3] 0
_f[74,Do_nothing] 1
_f[74,R1] 0
_f[74,R2] 0
_f[74,R3] 0
_f[86,Do_nothing] 1
_f[86,R1] 0
_f[86,R2] 0
_f[86,R3] 0
_f[29,Do_nothing] 1
_f[29,R1] 0
_f[29,R2] 0
_f[29,R3] 0
_f[18,Do_nothing] 1
_f[18,R1] 0
_f[18,R2] 0
_f[18,R3] 0
_f[24,Do_nothing] 1
_f[24,R1] 0
_f[24,R2] 0
_f[24,R3] 0
_f[94,Do_nothing] 1
_f[94,R1] 0
_f[94,R2] 0
_f[94,R3] 0
_f[33,Do_nothing] 1
_f[33,R1] 0
_f[33,R2] 0
_f[33,R3] 0
_f[12,Do_nothing] 1
_f[12,R1] 0
_f[12,R2] 0
_f[12,R3] 0
_f[57,Do_nothing] 1
_f[57,R1] 0
_f[57,R2] 0
_f[57,R3] 0
_f[97,Do_nothing] 1
_f[97,R1] 0
_f[97,R2] 0
_f[97,R3] 0
_f[69,Do_nothing] 1
_f[69,R1] 0
_f[69,R2] 0
_f[69,R3] 0
_f[3,Do_nothing] 1
_f[3,R1] 0
_f[3,R2] 0
_f[3,R3] 0
_f[66,Do_nothing] 1
_f[66,R1] 0
_f[66,R2] 0
_f[66,R3] 0
_Theta -1e+30
